
Log started (V11.0.0) Mon Apr 14 11:12:43 2008

Tried aggregator 1 time.
Reduced MIP has 540 rows, 20001 columns, and 40040 nonzeros.
Presolve time =    0.14 sec.
Clique table members: 500.
MIP emphasis: balance optimality and feasibility.
MIP search method: dynamic search.
Parallel mode: none, using 1 thread.
Root relaxation solution time =    0.66 sec.

        Nodes                                         Cuts/
   Node  Left     Objective  IInf  Best Integer     Best Node    ItCnt     Gap

*     0+    0                        25467.0000       38.1569     1127   99.85%
*     0+    0                           45.0000       38.1569     1127   15.21%
      0     0       39.0000    59       45.0000      Fract: 7     1138   13.33%
*     0+    0                           44.0000       39.0000     1138   11.36%
*     0+    0                           43.0000       39.0000     1138    9.30%
*     0+    0                           42.0000       39.0000     1138    7.14%

Repeating presolve.
Tried aggregator 1 time.
MIP Presolve eliminated 0 rows and 11716 columns.
Reduced MIP has 540 rows, 8285 columns, and 16608 nonzeros.
Tried aggregator 1 time.
Represolve time =    0.45 sec.
Clique table members: 927.
MIP emphasis: balance optimality and feasibility.
MIP search method: dynamic search.
Parallel mode: none, using 1 thread.
Root relaxation solution time =    0.27 sec.

        Nodes                                         Cuts/
   Node  Left     Objective  IInf  Best Integer     Best Node    ItCnt     Gap

      0     0       39.0000    69       42.0000       39.0000      930    7.14%
      0     2       39.0000    69       42.0000       39.0000      930    7.14%
    100    99       40.2138    76       42.0000       39.0000     6528    7.14%
    200   185       40.0000    65       42.0000       39.0000    13700    7.14%
    300   273       41.0000    51       42.0000       39.0000    19405    7.14%
    400   347       41.0000    55       42.0000       39.0000    29341    7.14%
    500   422       39.0000    71       42.0000       39.0000    38260    7.14%
    600   445    infeasible             42.0000       39.0000    45306    7.14%
*   619+  311                           41.0000       39.0000    46747    4.88%
    700   324       40.0000    61       41.0000       39.0000    53462    4.88%
    800   307       40.0000    58       41.0000       39.0000    65929    4.88%
    900   320       40.0000    54       41.0000       39.0000    73694    4.88%
   1000   354       40.0000    53       41.0000       39.0000    85527    4.88%
Elapsed time =  65.77 sec. (tree size =  3.45 MB, solutions = 6)
   1100   422       40.0000    44       41.0000       39.0000    97419    4.88%
   1200   477       39.0133    95       41.0000       39.0000   110546    4.88%
*  1209+  134                           40.0000       39.0000   111172    2.50%
   1300   176       39.0000   104       40.0000       39.0000   134543    2.50%
   1400   250       39.0000   127       40.0000       39.0000   150867    2.50%
   1500   322       39.0000    97       40.0000       39.0000   175319    2.50%
   1600   414       39.0000   101       40.0000       39.0000   185378    2.50%
   1700   480       39.0000   127       40.0000       39.0000   213250    2.50%
   1800   558       39.0000   142       40.0000       39.0000   233907    2.50%
   1900   598       39.0000   114       40.0000       39.0000   290996    2.50%
   2000   658       39.0000   153       40.0000       39.0000   331440    2.50%
Elapsed time = 212.44 sec. (tree size =  9.42 MB, solutions = 7)
   2100   734       39.0000   137       40.0000       39.0000   352650    2.50%
   2200   806    infeasible             40.0000       39.0000   377915    2.50%
   2300   854       39.0000    54       40.0000       39.0000   430539    2.50%
   2400   952       39.0000    69       40.0000       39.0000   439602    2.50%
   2500  1040       39.0000   113       40.0000       39.0000   452438    2.50%
   2600  1116       39.0000   123       40.0000       39.0000   469650    2.50%
   2700  1204       39.0000    97       40.0000       39.0000   485299    2.50%
   2800  1288       39.0000    89       40.0000       39.0000   502206    2.50%
   2900  1370       39.0000    84       40.0000       39.0000   519641    2.50%
   3000  1456       39.0000   133       40.0000       39.0000   531747    2.50%
Elapsed time = 377.23 sec. (tree size = 26.55 MB, solutions = 7)
   3100  1550       39.0000   132       40.0000       39.0000   545469    2.50%
   3200  1634       39.0000   123       40.0000       39.0000   562795    2.50%
   3300  1708    infeasible             40.0000       39.0000   585592    2.50%
   3400  1806       39.0000   117       40.0000       39.0000   597372    2.50%
   3500  1890       39.0000   124       40.0000       39.0000   611907    2.50%
   3600  1964       39.0000   148       40.0000       39.0000   631792    2.50%
   3700  2046       39.0000   159       40.0000       39.0000   650875    2.50%
   3800  2122       39.0000   138       40.0000       39.0000   673969    2.50%
   3900  2200    infeasible             40.0000       39.0000   692814    2.50%
   4000  2270       39.0000    93       40.0000       39.0000   719213    2.50%
Elapsed time = 569.03 sec. (tree size = 48.48 MB, solutions = 7)
   4100  2346       39.0000   152       40.0000       39.0000   744338    2.50%
   4200  2436    infeasible             40.0000       39.0000   758611    2.50%
   4300  2514       39.0000   149       40.0000       39.0000   781116    2.50%
   4400  2590       39.0000   124       40.0000       39.0000   806656    2.50%
*  4409+    1                           39.0000       39.0000   807349    0.00%

Cover cuts applied:  1882
Mixed integer rounding cuts applied:  2
Gomory fractional cuts applied:  9

Solution pool: 8 solutions saved.

MIP - Integer optimal solution:  Objective = 3.9000000000e+001
Solution time =  672.28 sec.  Iterations = 807349  Nodes = 4409


Incumbent solution
Variable Name           Solution Value
Cmax                         39.000000
X_1_30                        1.000000
X_2_29                        1.000000
X_3_16                        1.000000
X_4_32                        1.000000
X_5_10                        1.000000
X_6_17                        1.000000
X_7_19                        1.000000
X_8_7                         1.000000
X_9_34                        1.000000
X_10_14                       1.000000
X_11_16                       1.000000
X_12_14                       1.000000
X_13_23                       1.000000
X_14_13                       1.000000
X_15_34                       1.000000
X_16_8                        1.000000
X_17_5                        1.000000
X_18_19                       1.000000
X_19_20                       1.000000
X_20_3                        1.000000
X_21_28                       1.000000
X_22_30                       1.000000
X_23_40                       1.000000
X_24_9                        1.000000
X_25_25                       1.000000
X_26_14                       1.000000
X_27_26                       1.000000
X_28_2                        1.000000
X_29_5                        1.000000
X_30_17                       1.000000
X_31_40                       1.000000
X_32_36                       1.000000
X_33_11                       1.000000
X_34_7                        1.000000
X_35_8                        1.000000
X_36_29                       1.000000
X_37_23                       1.000000
X_38_39                       1.000000
X_39_27                       1.000000
X_40_12                       1.000000
X_41_5                        1.000000
X_42_32                       1.000000
X_43_23                       1.000000
X_44_26                       1.000000
X_45_38                       1.000000
X_46_12                       1.000000
X_47_14                       1.000000
X_48_25                       1.000000
X_49_4                        1.000000
X_50_25                       1.000000
X_51_26                       1.000000
X_52_35                       1.000000
X_53_6                        1.000000
X_54_16                       1.000000
X_55_19                       1.000000
X_56_1                        1.000000
X_57_11                       1.000000
X_58_24                       1.000000
X_59_38                       1.000000
X_60_39                       1.000000
X_61_39                       1.000000
X_62_32                       1.000000
X_63_3                        1.000000
X_64_40                       1.000000
X_65_27                       1.000000
X_66_8                        1.000000
X_67_21                       1.000000
X_68_13                       1.000000
X_69_15                       1.000000
X_70_40                       1.000000
X_71_18                       1.000000
X_72_17                       1.000000
X_73_21                       1.000000
X_74_11                       1.000000
X_75_14                       1.000000
X_76_3                        1.000000
X_77_39                       1.000000
X_78_7                        1.000000
X_79_40                       1.000000
X_80_29                       1.000000
X_81_24                       1.000000
X_82_13                       1.000000
X_83_15                       1.000000
X_84_22                       1.000000
X_85_35                       1.000000
X_86_21                       1.000000
X_87_10                       1.000000
X_88_29                       1.000000
X_89_24                       1.000000
X_90_10                       1.000000
X_91_28                       1.000000
X_92_19                       1.000000
X_93_18                       1.000000
X_94_1                        1.000000
X_95_16                       1.000000
X_96_11                       1.000000
X_97_30                       1.000000
X_98_40                       1.000000
X_99_40                       1.000000
X_100_11                      1.000000
X_101_36                      1.000000
X_102_18                      1.000000
X_103_15                      1.000000
X_104_33                      1.000000
X_105_29                      1.000000
X_106_29                      1.000000
X_107_7                       1.000000
X_108_39                      1.000000
X_109_9                       1.000000
X_110_2                       1.000000
X_111_24                      1.000000
X_112_37                      1.000000
X_113_24                      1.000000
X_114_30                      1.000000
X_115_9                       1.000000
X_116_5                       1.000000
X_117_5                       1.000000
X_118_26                      1.000000
X_119_25                      1.000000
X_120_2                       1.000000
X_121_15                      1.000000
X_122_7                       1.000000
X_123_36                      1.000000
X_124_37                      1.000000
X_125_19                      1.000000
X_126_37                      1.000000
X_127_25                      1.000000
X_128_39                      1.000000
X_129_28                      1.000000
X_130_8                       1.000000
X_131_20                      1.000000
X_132_28                      1.000000
X_133_12                      1.000000
X_134_35                      1.000000
X_135_28                      1.000000
X_136_38                      1.000000
X_137_16                      1.000000
X_138_2                       1.000000
X_139_35                      1.000000
X_140_20                      1.000000
X_141_1                       1.000000
X_142_36                      1.000000
X_143_31                      1.000000
X_144_18                      1.000000
X_145_16                      1.000000
X_146_39                      1.000000
X_147_11                      1.000000
X_148_3                       1.000000
X_149_40                      1.000000
X_150_21                      1.000000
X_151_38                      1.000000
X_152_12                      1.000000
X_153_30                      1.000000
X_154_31                      1.000000
X_155_19                      1.000000
X_156_34                      1.000000
X_157_28                      1.000000
X_158_15                      1.000000
X_159_13                      1.000000
X_160_31                      1.000000
X_161_30                      1.000000
X_162_28                      1.000000
X_163_27                      1.000000
X_164_26                      1.000000
X_165_1                       1.000000
X_166_6                       1.000000
X_167_11                      1.000000
X_168_20                      1.000000
X_169_17                      1.000000
X_170_6                       1.000000
X_171_11                      1.000000
X_172_35                      1.000000
X_173_18                      1.000000
X_174_13                      1.000000
X_175_27                      1.000000
X_176_15                      1.000000
X_177_18                      1.000000
X_178_5                       1.000000
X_179_20                      1.000000
X_180_16                      1.000000
X_181_36                      1.000000
X_182_17                      1.000000
X_183_13                      1.000000
X_184_6                       1.000000
X_185_21                      1.000000
X_186_27                      1.000000
X_187_5                       1.000000
X_188_5                       1.000000
X_189_30                      1.000000
X_190_12                      1.000000
X_191_23                      1.000000
X_192_22                      1.000000
X_193_1                       1.000000
X_194_4                       1.000000
X_195_29                      1.000000
X_196_12                      1.000000
X_197_8                       1.000000
X_198_31                      1.000000
X_199_17                      1.000000
X_200_7                       1.000000
X_201_13                      1.000000
X_202_29                      1.000000
X_203_27                      1.000000
X_204_15                      1.000000
X_205_21                      1.000000
X_206_22                      1.000000
X_207_23                      1.000000
X_208_2                       1.000000
X_209_12                      1.000000
X_210_15                      1.000000
X_211_16                      1.000000
X_212_10                      1.000000
X_213_4                       1.000000
X_214_36                      1.000000
X_215_3                       1.000000
X_216_7                       1.000000
X_217_2                       1.000000
X_218_27                      1.000000
X_219_1                       1.000000
X_220_25                      1.000000
X_221_30                      1.000000
X_222_23                      1.000000
X_223_11                      1.000000
X_224_21                      1.000000
X_225_13                      1.000000
X_226_5                       1.000000
X_227_14                      1.000000
X_228_19                      1.000000
X_229_11                      1.000000
X_230_12                      1.000000
X_231_38                      1.000000
X_232_36                      1.000000
X_233_14                      1.000000
X_234_34                      1.000000
X_235_14                      1.000000
X_236_26                      1.000000
X_237_22                      1.000000
X_238_8                       1.000000
X_239_19                      1.000000
X_240_6                       1.000000
X_241_33                      1.000000
X_242_33                      1.000000
X_243_36                      1.000000
X_244_5                       1.000000
X_245_28                      1.000000
X_246_7                       1.000000
X_247_10                      1.000000
X_248_33                      1.000000
X_249_3                       1.000000
X_250_3                       1.000000
X_251_15                      1.000000
X_252_38                      1.000000
X_253_4                       1.000000
X_254_10                      1.000000
X_255_31                      1.000000
X_256_4                       1.000000
X_257_21                      1.000000
X_258_28                      1.000000
X_259_6                       1.000000
X_260_22                      1.000000
X_261_40                      1.000000
X_262_15                      1.000000
X_263_10                      1.000000
X_264_24                      1.000000
X_265_8                       1.000000
X_266_33                      1.000000
X_267_40                      1.000000
X_268_17                      1.000000
X_269_4                       1.000000
X_270_25                      1.000000
X_271_27                      1.000000
X_272_23                      1.000000
X_273_33                      1.000000
X_274_12                      1.000000
X_275_16                      1.000000
X_276_5                       1.000000
X_277_25                      1.000000
X_278_9                       1.000000
X_279_10                      1.000000
X_280_9                       1.000000
X_281_12                      1.000000
X_282_7                       1.000000
X_283_40                      1.000000
X_284_13                      1.000000
X_285_37                      1.000000
X_286_29                      1.000000
X_287_13                      1.000000
X_288_36                      1.000000
X_289_18                      1.000000
X_290_9                       1.000000
X_291_6                       1.000000
X_292_24                      1.000000
X_293_4                       1.000000
X_294_37                      1.000000
X_295_1                       1.000000
X_296_12                      1.000000
X_297_28                      1.000000
X_298_10                      1.000000
X_299_12                      1.000000
X_300_36                      1.000000
X_301_11                      1.000000
X_302_34                      1.000000
X_303_14                      1.000000
X_304_34                      1.000000
X_305_12                      1.000000
X_306_19                      1.000000
X_307_18                      1.000000
X_308_23                      1.000000
X_309_18                      1.000000
X_310_19                      1.000000
X_311_7                       1.000000
X_312_26                      1.000000
X_313_38                      1.000000
X_314_37                      1.000000
X_315_34                      1.000000
X_316_22                      1.000000
X_317_3                       1.000000
X_318_4                       1.000000
X_319_28                      1.000000
X_320_29                      1.000000
X_321_2                       1.000000
X_322_6                       1.000000
X_323_11                      1.000000
X_324_21                      1.000000
X_325_22                      1.000000
X_326_26                      1.000000
X_327_3                       1.000000
X_328_2                       1.000000
X_329_1                       1.000000
X_330_39                      1.000000
X_331_22                      1.000000
X_332_11                      1.000000
X_333_35                      1.000000
X_334_33                      1.000000
X_335_29                      1.000000
X_336_36                      1.000000
X_337_31                      1.000000
X_338_23                      1.000000
X_339_24                      1.000000
X_340_1                       1.000000
X_341_8                       1.000000
X_342_17                      1.000000
X_343_13                      1.000000
X_344_27                      1.000000
X_345_3                       1.000000
X_346_9                       1.000000
X_347_21                      1.000000
X_348_39                      1.000000
X_349_20                      1.000000
X_350_35                      1.000000
X_351_23                      1.000000
X_352_14                      1.000000
X_353_11                      1.000000
X_354_15                      1.000000
X_355_25                      1.000000
X_356_38                      1.000000
X_357_24                      1.000000
X_358_23                      1.000000
X_359_30                      1.000000
X_360_39                      1.000000
X_361_15                      1.000000
X_362_6                       1.000000
X_363_7                       1.000000
X_364_39                      1.000000
X_365_28                      1.000000
X_366_19                      1.000000
X_367_17                      1.000000
X_368_38                      1.000000
X_369_26                      1.000000
X_370_34                      1.000000
X_371_32                      1.000000
X_372_20                      1.000000
X_373_15                      1.000000
X_374_8                       1.000000
X_375_2                       1.000000
X_376_10                      1.000000
X_377_12                      1.000000
X_378_39                      1.000000
X_379_34                      1.000000
X_380_24                      1.000000
X_381_36                      1.000000
X_382_20                      1.000000
X_383_10                      1.000000
X_384_13                      1.000000
X_385_19                      1.000000
X_386_39                      1.000000
X_387_32                      1.000000
X_388_33                      1.000000
X_389_31                      1.000000
X_390_16                      1.000000
X_391_30                      1.000000
X_392_36                      1.000000
X_393_32                      1.000000
X_394_30                      1.000000
X_395_34                      1.000000
X_396_12                      1.000000
X_397_22                      1.000000
X_398_7                       1.000000
X_399_24                      1.000000
X_400_30                      1.000000
X_401_14                      1.000000
X_402_11                      1.000000
X_403_33                      1.000000
X_404_5                       1.000000
X_405_30                      1.000000
X_406_6                       1.000000
X_407_32                      1.000000
X_408_9                       1.000000
X_409_29                      1.000000
X_410_27                      1.000000
X_411_8                       1.000000
X_412_27                      1.000000
X_413_22                      1.000000
X_414_29                      1.000000
X_415_39                      1.000000
X_416_3                       1.000000
X_417_32                      1.000000
X_418_16                      1.000000
X_419_14                      1.000000
X_420_38                      1.000000
X_421_24                      1.000000
X_422_33                      1.000000
X_423_4                       1.000000
X_424_8                       1.000000
X_425_9                       1.000000
X_426_33                      1.000000
X_427_17                      1.000000
X_428_10                      1.000000
X_429_2                       1.000000
X_430_2                       1.000000
X_431_12                      1.000000
X_432_30                      1.000000
X_433_6                       1.000000
X_434_6                       1.000000
X_435_8                       1.000000
X_436_11                      1.000000
X_437_35                      1.000000
X_438_24                      1.000000
X_439_16                      1.000000
X_440_4                       1.000000
X_441_7                       1.000000
X_442_27                      1.000000
X_443_40                      1.000000
X_444_30                      1.000000
X_445_23                      1.000000
X_446_4                       1.000000
X_447_5                       1.000000
X_448_13                      1.000000
X_449_10                      1.000000
X_450_10                      1.000000
X_451_6                       1.000000
X_452_14                      1.000000
X_453_21                      1.000000
X_454_22                      1.000000
X_455_4                       1.000000
X_456_34                      1.000000
X_457_29                      1.000000
X_458_26                      1.000000
X_459_32                      1.000000
X_460_32                      1.000000
X_461_35                      1.000000
X_462_27                      1.000000
X_463_18                      1.000000
X_464_19                      1.000000
X_465_6                       1.000000
X_466_35                      1.000000
X_467_13                      1.000000
X_468_25                      1.000000
X_469_1                       1.000000
X_470_34                      1.000000
X_471_17                      1.000000
X_472_32                      1.000000
X_473_16                      1.000000
X_474_26                      1.000000
X_475_27                      1.000000
X_476_17                      1.000000
X_477_33                      1.000000
X_478_15                      1.000000
X_479_26                      1.000000
X_480_36                      1.000000
X_481_1                       1.000000
X_482_22                      1.000000
X_483_7                       1.000000
X_484_31                      1.000000
X_485_2                       1.000000
X_486_32                      1.000000
X_487_1                       1.000000
X_488_40                      1.000000
X_489_13                      1.000000
X_490_21                      1.000000
X_491_28                      1.000000
X_492_33                      1.000000
X_493_23                      1.000000
X_494_7                       1.000000
X_495_6                       1.000000
X_496_4                       1.000000
X_497_32                      1.000000
X_498_4                       1.000000
X_499_23                      1.000000
X_500_5                       1.000000
All other variables in the range 1-20001 are 0.
